logs/miss/max/miss-06-15-2.lp
\ LP format - for model browsing. Use MPS format to capture full model detail.
Maximize
  x0,1_7 + x0,1_8 + x0,1_9 + x0,1_10 + x0,1_12 + x0,1_20 + x0,1_22 + x0,1_30
   + x0,1_39 + x0,2_7 + x0,2_8 + x0,2_9 + x0,2_10 + x0,2_12 + x0,2_20
   + x0,2_22 + x0,2_30 + x0,2_39 + x0,3_7 + x0,3_8 + x0,3_9 + x0,3_10
   + x0,3_12 + x0,3_20 + x0,3_22 + x0,3_30 + x0,3_39 + x0,4_7 + x0,4_8
   + x0,4_9 + x0,4_10 + x0,4_12 + x0,4_20 + x0,4_22 + x0,4_30 + x0,4_39
   + x0,5_7 + x0,5_8 + x0,5_9 + x0,5_10 + x0,5_12 + x0,5_20 + x0,5_22
   + x0,5_30 + x0,5_39 + x1,2_7 + x1,2_8 + x1,2_9 + x1,2_10 + x1,2_12
   + x1,2_20 + x1,2_22 + x1,2_30 + x1,2_39 + x1,3_7 + x1,3_8 + x1,3_9
   + x1,3_10 + x1,3_12 + x1,3_20 + x1,3_22 + x1,3_30 + x1,3_39 + x1,4_7
   + x1,4_8 + x1,4_9 + x1,4_10 + x1,4_12 + x1,4_20 + x1,4_22 + x1,4_30
   + x1,4_39 + x1,5_7 + x1,5_8 + x1,5_9 + x1,5_10 + x1,5_12 + x1,5_20
   + x1,5_22 + x1,5_30 + x1,5_39 + x2,3_7 + x2,3_8 + x2,3_9 + x2,3_10
   + x2,3_12 + x2,3_20 + x2,3_22 + x2,3_30 + x2,3_39 + x2,4_7 + x2,4_8
   + x2,4_9 + x2,4_10 + x2,4_12 + x2,4_20 + x2,4_22 + x2,4_30 + x2,4_39
   + x2,5_7 + x2,5_8 + x2,5_9 + x2,5_10 + x2,5_12 + x2,5_20 + x2,5_22
   + x2,5_30 + x2,5_39 + x3,4_7 + x3,4_8 + x3,4_9 + x3,4_10 + x3,4_12
   + x3,4_20 + x3,4_22 + x3,4_30 + x3,4_39 + x3,5_7 + x3,5_8 + x3,5_9
   + x3,5_10 + x3,5_12 + x3,5_20 + x3,5_22 + x3,5_30 + x3,5_39 + x4,5_7
   + x4,5_8 + x4,5_9 + x4,5_10 + x4,5_12 + x4,5_20 + x4,5_22 + x4,5_30
   + x4,5_39
Subject To
 R0: x0,1_7 + x0,2_7 + x0,3_7 + x0,4_7 + x0,5_7 + x1,2_7 + x1,3_7 + x1,4_7
   + x1,5_7 + x2,3_7 + x2,4_7 + x2,5_7 + x3,4_7 + x3,5_7 + x4,5_7 <= 1
 R1: x0,1_8 + x0,2_8 + x0,3_8 + x0,4_8 + x0,5_8 + x1,2_8 + x1,3_8 + x1,4_8
   + x1,5_8 + x2,3_8 + x2,4_8 + x2,5_8 + x3,4_8 + x3,5_8 + x4,5_8 <= 1
 R2: x0,1_9 + x0,2_9 + x0,3_9 + x0,4_9 + x0,5_9 + x1,2_9 + x1,3_9 + x1,4_9
   + x1,5_9 + x2,3_9 + x2,4_9 + x2,5_9 + x3,4_9 + x3,5_9 + x4,5_9 <= 1
 R3: x0,1_10 + x0,2_10 + x0,3_10 + x0,4_10 + x0,5_10 + x1,2_10 + x1,3_10
   + x1,4_10 + x1,5_10 + x2,3_10 + x2,4_10 + x2,5_10 + x3,4_10 + x3,5_10
   + x4,5_10 <= 1
 R4: x0,1_12 + x0,2_12 + x0,3_12 + x0,4_12 + x0,5_12 + x1,2_12 + x1,3_12
   + x1,4_12 + x1,5_12 + x2,3_12 + x2,4_12 + x2,5_12 + x3,4_12 + x3,5_12
   + x4,5_12 <= 1
 R5: x0,1_20 + x0,2_20 + x0,3_20 + x0,4_20 + x0,5_20 + x1,2_20 + x1,3_20
   + x1,4_20 + x1,5_20 + x2,3_20 + x2,4_20 + x2,5_20 + x3,4_20 + x3,5_20
   + x4,5_20 <= 1
 R6: x0,1_22 + x0,2_22 + x0,3_22 + x0,4_22 + x0,5_22 + x1,2_22 + x1,3_22
   + x1,4_22 + x1,5_22 + x2,3_22 + x2,4_22 + x2,5_22 + x3,4_22 + x3,5_22
   + x4,5_22 <= 1
 R7: x0,1_30 + x0,2_30 + x0,3_30 + x0,4_30 + x0,5_30 + x1,2_30 + x1,3_30
   + x1,4_30 + x1,5_30 + x2,3_30 + x2,4_30 + x2,5_30 + x3,4_30 + x3,5_30
   + x4,5_30 <= 1
 R8: x0,1_39 + x0,2_39 + x0,3_39 + x0,4_39 + x0,5_39 + x1,2_39 + x1,3_39
   + x1,4_39 + x1,5_39 + x2,3_39 + x2,4_39 + x2,5_39 + x3,4_39 + x3,5_39
   + x4,5_39 <= 1
 R9: x0,1_7 + x0,1_8 + x0,1_9 + x0,1_10 + x0,1_12 + x0,1_20 + x0,1_22
   + x0,1_30 + x0,1_39 <= 1
 R10: x0,2_7 + x0,2_8 + x0,2_9 + x0,2_10 + x0,2_12 + x0,2_20 + x0,2_22
   + x0,2_30 + x0,2_39 <= 1
 R11: x0,3_7 + x0,3_8 + x0,3_9 + x0,3_10 + x0,3_12 + x0,3_20 + x0,3_22
   + x0,3_30 + x0,3_39 <= 1
 R12: x0,4_7 + x0,4_8 + x0,4_9 + x0,4_10 + x0,4_12 + x0,4_20 + x0,4_22
   + x0,4_30 + x0,4_39 <= 1
 R13: x0,5_7 + x0,5_8 + x0,5_9 + x0,5_10 + x0,5_12 + x0,5_20 + x0,5_22
   + x0,5_30 + x0,5_39 <= 1
 R14: x1,2_7 + x1,2_8 + x1,2_9 + x1,2_10 + x1,2_12 + x1,2_20 + x1,2_22
   + x1,2_30 + x1,2_39 <= 1
 R15: x1,3_7 + x1,3_8 + x1,3_9 + x1,3_10 + x1,3_12 + x1,3_20 + x1,3_22
   + x1,3_30 + x1,3_39 <= 1
 R16: x1,4_7 + x1,4_8 + x1,4_9 + x1,4_10 + x1,4_12 + x1,4_20 + x1,4_22
   + x1,4_30 + x1,4_39 <= 1
 R17: x1,5_7 + x1,5_8 + x1,5_9 + x1,5_10 + x1,5_12 + x1,5_20 + x1,5_22
   + x1,5_30 + x1,5_39 <= 1
 R18: x2,3_7 + x2,3_8 + x2,3_9 + x2,3_10 + x2,3_12 + x2,3_20 + x2,3_22
   + x2,3_30 + x2,3_39 <= 1
 R19: x2,4_7 + x2,4_8 + x2,4_9 + x2,4_10 + x2,4_12 + x2,4_20 + x2,4_22
   + x2,4_30 + x2,4_39 <= 1
 R20: x2,5_7 + x2,5_8 + x2,5_9 + x2,5_10 + x2,5_12 + x2,5_20 + x2,5_22
   + x2,5_30 + x2,5_39 <= 1
 R21: x3,4_7 + x3,4_8 + x3,4_9 + x3,4_10 + x3,4_12 + x3,4_20 + x3,4_22
   + x3,4_30 + x3,4_39 <= 1
 R22: x3,5_7 + x3,5_8 + x3,5_9 + x3,5_10 + x3,5_12 + x3,5_20 + x3,5_22
   + x3,5_30 + x3,5_39 <= 1
 R23: x4,5_7 + x4,5_8 + x4,5_9 + x4,5_10 + x4,5_12 + x4,5_20 + x4,5_22
   + x4,5_30 + x4,5_39 <= 1
 R24: p0 - p1 <= -1
 R25: - 7 x0,1_7 - p0 + p1 >= 0
 R26: 157 x0,1_7 - p0 + p1 <= 164
 R27: - 8 x0,1_8 - p0 + p1 >= 0
 R28: 157 x0,1_8 - p0 + p1 <= 165
 R29: - 9 x0,1_9 - p0 + p1 >= 0
 R30: 157 x0,1_9 - p0 + p1 <= 166
 R31: - 10 x0,1_10 - p0 + p1 >= 0
 R32: 157 x0,1_10 - p0 + p1 <= 167
 R33: - 12 x0,1_12 - p0 + p1 >= 0
 R34: 157 x0,1_12 - p0 + p1 <= 169
 R35: - 20 x0,1_20 - p0 + p1 >= 0
 R36: 157 x0,1_20 - p0 + p1 <= 177
 R37: - 22 x0,1_22 - p0 + p1 >= 0
 R38: 157 x0,1_22 - p0 + p1 <= 179
 R39: - 30 x0,1_30 - p0 + p1 >= 0
 R40: 157 x0,1_30 - p0 + p1 <= 187
 R41: - 39 x0,1_39 - p0 + p1 >= 0
 R42: 157 x0,1_39 - p0 + p1 <= 196
 R43: p0 - p2 <= -1
 R44: - 7 x0,2_7 - p0 + p2 >= 0
 R45: 157 x0,2_7 - p0 + p2 <= 164
 R46: - 8 x0,2_8 - p0 + p2 >= 0
 R47: 157 x0,2_8 - p0 + p2 <= 165
 R48: - 9 x0,2_9 - p0 + p2 >= 0
 R49: 157 x0,2_9 - p0 + p2 <= 166
 R50: - 10 x0,2_10 - p0 + p2 >= 0
 R51: 157 x0,2_10 - p0 + p2 <= 167
 R52: - 12 x0,2_12 - p0 + p2 >= 0
 R53: 157 x0,2_12 - p0 + p2 <= 169
 R54: - 20 x0,2_20 - p0 + p2 >= 0
 R55: 157 x0,2_20 - p0 + p2 <= 177
 R56: - 22 x0,2_22 - p0 + p2 >= 0
 R57: 157 x0,2_22 - p0 + p2 <= 179
 R58: - 30 x0,2_30 - p0 + p2 >= 0
 R59: 157 x0,2_30 - p0 + p2 <= 187
 R60: - 39 x0,2_39 - p0 + p2 >= 0
 R61: 157 x0,2_39 - p0 + p2 <= 196
 R62: p0 - p3 <= -1
 R63: - 7 x0,3_7 - p0 + p3 >= 0
 R64: 157 x0,3_7 - p0 + p3 <= 164
 R65: - 8 x0,3_8 - p0 + p3 >= 0
 R66: 157 x0,3_8 - p0 + p3 <= 165
 R67: - 9 x0,3_9 - p0 + p3 >= 0
 R68: 157 x0,3_9 - p0 + p3 <= 166
 R69: - 10 x0,3_10 - p0 + p3 >= 0
 R70: 157 x0,3_10 - p0 + p3 <= 167
 R71: - 12 x0,3_12 - p0 + p3 >= 0
 R72: 157 x0,3_12 - p0 + p3 <= 169
 R73: - 20 x0,3_20 - p0 + p3 >= 0
 R74: 157 x0,3_20 - p0 + p3 <= 177
 R75: - 22 x0,3_22 - p0 + p3 >= 0
 R76: 157 x0,3_22 - p0 + p3 <= 179
 R77: - 30 x0,3_30 - p0 + p3 >= 0
 R78: 157 x0,3_30 - p0 + p3 <= 187
 R79: - 39 x0,3_39 - p0 + p3 >= 0
 R80: 157 x0,3_39 - p0 + p3 <= 196
 R81: p0 - p4 <= -1
 R82: - 7 x0,4_7 - p0 + p4 >= 0
 R83: 157 x0,4_7 - p0 + p4 <= 164
 R84: - 8 x0,4_8 - p0 + p4 >= 0
 R85: 157 x0,4_8 - p0 + p4 <= 165
 R86: - 9 x0,4_9 - p0 + p4 >= 0
 R87: 157 x0,4_9 - p0 + p4 <= 166
 R88: - 10 x0,4_10 - p0 + p4 >= 0
 R89: 157 x0,4_10 - p0 + p4 <= 167
 R90: - 12 x0,4_12 - p0 + p4 >= 0
 R91: 157 x0,4_12 - p0 + p4 <= 169
 R92: - 20 x0,4_20 - p0 + p4 >= 0
 R93: 157 x0,4_20 - p0 + p4 <= 177
 R94: - 22 x0,4_22 - p0 + p4 >= 0
 R95: 157 x0,4_22 - p0 + p4 <= 179
 R96: - 30 x0,4_30 - p0 + p4 >= 0
 R97: 157 x0,4_30 - p0 + p4 <= 187
 R98: - 39 x0,4_39 - p0 + p4 >= 0
 R99: 157 x0,4_39 - p0 + p4 <= 196
 R100: p0 - p5 <= -1
 R101: - 7 x0,5_7 - p0 + p5 >= 0
 R102: 157 x0,5_7 - p0 + p5 <= 164
 R103: - 8 x0,5_8 - p0 + p5 >= 0
 R104: 157 x0,5_8 - p0 + p5 <= 165
 R105: - 9 x0,5_9 - p0 + p5 >= 0
 R106: 157 x0,5_9 - p0 + p5 <= 166
 R107: - 10 x0,5_10 - p0 + p5 >= 0
 R108: 157 x0,5_10 - p0 + p5 <= 167
 R109: - 12 x0,5_12 - p0 + p5 >= 0
 R110: 157 x0,5_12 - p0 + p5 <= 169
 R111: - 20 x0,5_20 - p0 + p5 >= 0
 R112: 157 x0,5_20 - p0 + p5 <= 177
 R113: - 22 x0,5_22 - p0 + p5 >= 0
 R114: 157 x0,5_22 - p0 + p5 <= 179
 R115: - 30 x0,5_30 - p0 + p5 >= 0
 R116: 157 x0,5_30 - p0 + p5 <= 187
 R117: - 39 x0,5_39 - p0 + p5 >= 0
 R118: 157 x0,5_39 - p0 + p5 <= 196
 R119: p1 - p2 <= -1
 R120: - 7 x1,2_7 - p1 + p2 >= 0
 R121: 157 x1,2_7 - p1 + p2 <= 164
 R122: - 8 x1,2_8 - p1 + p2 >= 0
 R123: 157 x1,2_8 - p1 + p2 <= 165
 R124: - 9 x1,2_9 - p1 + p2 >= 0
 R125: 157 x1,2_9 - p1 + p2 <= 166
 R126: - 10 x1,2_10 - p1 + p2 >= 0
 R127: 157 x1,2_10 - p1 + p2 <= 167
 R128: - 12 x1,2_12 - p1 + p2 >= 0
 R129: 157 x1,2_12 - p1 + p2 <= 169
 R130: - 20 x1,2_20 - p1 + p2 >= 0
 R131: 157 x1,2_20 - p1 + p2 <= 177
 R132: - 22 x1,2_22 - p1 + p2 >= 0
 R133: 157 x1,2_22 - p1 + p2 <= 179
 R134: - 30 x1,2_30 - p1 + p2 >= 0
 R135: 157 x1,2_30 - p1 + p2 <= 187
 R136: - 39 x1,2_39 - p1 + p2 >= 0
 R137: 157 x1,2_39 - p1 + p2 <= 196
 R138: p1 - p3 <= -1
 R139: - 7 x1,3_7 - p1 + p3 >= 0
 R140: 157 x1,3_7 - p1 + p3 <= 164
 R141: - 8 x1,3_8 - p1 + p3 >= 0
 R142: 157 x1,3_8 - p1 + p3 <= 165
 R143: - 9 x1,3_9 - p1 + p3 >= 0
 R144: 157 x1,3_9 - p1 + p3 <= 166
 R145: - 10 x1,3_10 - p1 + p3 >= 0
 R146: 157 x1,3_10 - p1 + p3 <= 167
 R147: - 12 x1,3_12 - p1 + p3 >= 0
 R148: 157 x1,3_12 - p1 + p3 <= 169
 R149: - 20 x1,3_20 - p1 + p3 >= 0
 R150: 157 x1,3_20 - p1 + p3 <= 177
 R151: - 22 x1,3_22 - p1 + p3 >= 0
 R152: 157 x1,3_22 - p1 + p3 <= 179
 R153: - 30 x1,3_30 - p1 + p3 >= 0
 R154: 157 x1,3_30 - p1 + p3 <= 187
 R155: - 39 x1,3_39 - p1 + p3 >= 0
 R156: 157 x1,3_39 - p1 + p3 <= 196
 R157: p1 - p4 <= -1
 R158: - 7 x1,4_7 - p1 + p4 >= 0
 R159: 157 x1,4_7 - p1 + p4 <= 164
 R160: - 8 x1,4_8 - p1 + p4 >= 0
 R161: 157 x1,4_8 - p1 + p4 <= 165
 R162: - 9 x1,4_9 - p1 + p4 >= 0
 R163: 157 x1,4_9 - p1 + p4 <= 166
 R164: - 10 x1,4_10 - p1 + p4 >= 0
 R165: 157 x1,4_10 - p1 + p4 <= 167
 R166: - 12 x1,4_12 - p1 + p4 >= 0
 R167: 157 x1,4_12 - p1 + p4 <= 169
 R168: - 20 x1,4_20 - p1 + p4 >= 0
 R169: 157 x1,4_20 - p1 + p4 <= 177
 R170: - 22 x1,4_22 - p1 + p4 >= 0
 R171: 157 x1,4_22 - p1 + p4 <= 179
 R172: - 30 x1,4_30 - p1 + p4 >= 0
 R173: 157 x1,4_30 - p1 + p4 <= 187
 R174: - 39 x1,4_39 - p1 + p4 >= 0
 R175: 157 x1,4_39 - p1 + p4 <= 196
 R176: p1 - p5 <= -1
 R177: - 7 x1,5_7 - p1 + p5 >= 0
 R178: 157 x1,5_7 - p1 + p5 <= 164
 R179: - 8 x1,5_8 - p1 + p5 >= 0
 R180: 157 x1,5_8 - p1 + p5 <= 165
 R181: - 9 x1,5_9 - p1 + p5 >= 0
 R182: 157 x1,5_9 - p1 + p5 <= 166
 R183: - 10 x1,5_10 - p1 + p5 >= 0
 R184: 157 x1,5_10 - p1 + p5 <= 167
 R185: - 12 x1,5_12 - p1 + p5 >= 0
 R186: 157 x1,5_12 - p1 + p5 <= 169
 R187: - 20 x1,5_20 - p1 + p5 >= 0
 R188: 157 x1,5_20 - p1 + p5 <= 177
 R189: - 22 x1,5_22 - p1 + p5 >= 0
 R190: 157 x1,5_22 - p1 + p5 <= 179
 R191: - 30 x1,5_30 - p1 + p5 >= 0
 R192: 157 x1,5_30 - p1 + p5 <= 187
 R193: - 39 x1,5_39 - p1 + p5 >= 0
 R194: 157 x1,5_39 - p1 + p5 <= 196
 R195: p2 - p3 <= -1
 R196: - 7 x2,3_7 - p2 + p3 >= 0
 R197: 157 x2,3_7 - p2 + p3 <= 164
 R198: - 8 x2,3_8 - p2 + p3 >= 0
 R199: 157 x2,3_8 - p2 + p3 <= 165
 R200: - 9 x2,3_9 - p2 + p3 >= 0
 R201: 157 x2,3_9 - p2 + p3 <= 166
 R202: - 10 x2,3_10 - p2 + p3 >= 0
 R203: 157 x2,3_10 - p2 + p3 <= 167
 R204: - 12 x2,3_12 - p2 + p3 >= 0
 R205: 157 x2,3_12 - p2 + p3 <= 169
 R206: - 20 x2,3_20 - p2 + p3 >= 0
 R207: 157 x2,3_20 - p2 + p3 <= 177
 R208: - 22 x2,3_22 - p2 + p3 >= 0
 R209: 157 x2,3_22 - p2 + p3 <= 179
 R210: - 30 x2,3_30 - p2 + p3 >= 0
 R211: 157 x2,3_30 - p2 + p3 <= 187
 R212: - 39 x2,3_39 - p2 + p3 >= 0
 R213: 157 x2,3_39 - p2 + p3 <= 196
 R214: p2 - p4 <= -1
 R215: - 7 x2,4_7 - p2 + p4 >= 0
 R216: 157 x2,4_7 - p2 + p4 <= 164
 R217: - 8 x2,4_8 - p2 + p4 >= 0
 R218: 157 x2,4_8 - p2 + p4 <= 165
 R219: - 9 x2,4_9 - p2 + p4 >= 0
 R220: 157 x2,4_9 - p2 + p4 <= 166
 R221: - 10 x2,4_10 - p2 + p4 >= 0
 R222: 157 x2,4_10 - p2 + p4 <= 167
 R223: - 12 x2,4_12 - p2 + p4 >= 0
 R224: 157 x2,4_12 - p2 + p4 <= 169
 R225: - 20 x2,4_20 - p2 + p4 >= 0
 R226: 157 x2,4_20 - p2 + p4 <= 177
 R227: - 22 x2,4_22 - p2 + p4 >= 0
 R228: 157 x2,4_22 - p2 + p4 <= 179
 R229: - 30 x2,4_30 - p2 + p4 >= 0
 R230: 157 x2,4_30 - p2 + p4 <= 187
 R231: - 39 x2,4_39 - p2 + p4 >= 0
 R232: 157 x2,4_39 - p2 + p4 <= 196
 R233: p2 - p5 <= -1
 R234: - 7 x2,5_7 - p2 + p5 >= 0
 R235: 157 x2,5_7 - p2 + p5 <= 164
 R236: - 8 x2,5_8 - p2 + p5 >= 0
 R237: 157 x2,5_8 - p2 + p5 <= 165
 R238: - 9 x2,5_9 - p2 + p5 >= 0
 R239: 157 x2,5_9 - p2 + p5 <= 166
 R240: - 10 x2,5_10 - p2 + p5 >= 0
 R241: 157 x2,5_10 - p2 + p5 <= 167
 R242: - 12 x2,5_12 - p2 + p5 >= 0
 R243: 157 x2,5_12 - p2 + p5 <= 169
 R244: - 20 x2,5_20 - p2 + p5 >= 0
 R245: 157 x2,5_20 - p2 + p5 <= 177
 R246: - 22 x2,5_22 - p2 + p5 >= 0
 R247: 157 x2,5_22 - p2 + p5 <= 179
 R248: - 30 x2,5_30 - p2 + p5 >= 0
 R249: 157 x2,5_30 - p2 + p5 <= 187
 R250: - 39 x2,5_39 - p2 + p5 >= 0
 R251: 157 x2,5_39 - p2 + p5 <= 196
 R252: p3 - p4 <= -1
 R253: - 7 x3,4_7 - p3 + p4 >= 0
 R254: 157 x3,4_7 - p3 + p4 <= 164
 R255: - 8 x3,4_8 - p3 + p4 >= 0
 R256: 157 x3,4_8 - p3 + p4 <= 165
 R257: - 9 x3,4_9 - p3 + p4 >= 0
 R258: 157 x3,4_9 - p3 + p4 <= 166
 R259: - 10 x3,4_10 - p3 + p4 >= 0
 R260: 157 x3,4_10 - p3 + p4 <= 167
 R261: - 12 x3,4_12 - p3 + p4 >= 0
 R262: 157 x3,4_12 - p3 + p4 <= 169
 R263: - 20 x3,4_20 - p3 + p4 >= 0
 R264: 157 x3,4_20 - p3 + p4 <= 177
 R265: - 22 x3,4_22 - p3 + p4 >= 0
 R266: 157 x3,4_22 - p3 + p4 <= 179
 R267: - 30 x3,4_30 - p3 + p4 >= 0
 R268: 157 x3,4_30 - p3 + p4 <= 187
 R269: - 39 x3,4_39 - p3 + p4 >= 0
 R270: 157 x3,4_39 - p3 + p4 <= 196
 R271: p3 - p5 <= -1
 R272: - 7 x3,5_7 - p3 + p5 >= 0
 R273: 157 x3,5_7 - p3 + p5 <= 164
 R274: - 8 x3,5_8 - p3 + p5 >= 0
 R275: 157 x3,5_8 - p3 + p5 <= 165
 R276: - 9 x3,5_9 - p3 + p5 >= 0
 R277: 157 x3,5_9 - p3 + p5 <= 166
 R278: - 10 x3,5_10 - p3 + p5 >= 0
 R279: 157 x3,5_10 - p3 + p5 <= 167
 R280: - 12 x3,5_12 - p3 + p5 >= 0
 R281: 157 x3,5_12 - p3 + p5 <= 169
 R282: - 20 x3,5_20 - p3 + p5 >= 0
 R283: 157 x3,5_20 - p3 + p5 <= 177
 R284: - 22 x3,5_22 - p3 + p5 >= 0
 R285: 157 x3,5_22 - p3 + p5 <= 179
 R286: - 30 x3,5_30 - p3 + p5 >= 0
 R287: 157 x3,5_30 - p3 + p5 <= 187
 R288: - 39 x3,5_39 - p3 + p5 >= 0
 R289: 157 x3,5_39 - p3 + p5 <= 196
 R290: p4 - p5 <= -1
 R291: - 7 x4,5_7 - p4 + p5 >= 0
 R292: 157 x4,5_7 - p4 + p5 <= 164
 R293: - 8 x4,5_8 - p4 + p5 >= 0
 R294: 157 x4,5_8 - p4 + p5 <= 165
 R295: - 9 x4,5_9 - p4 + p5 >= 0
 R296: 157 x4,5_9 - p4 + p5 <= 166
 R297: - 10 x4,5_10 - p4 + p5 >= 0
 R298: 157 x4,5_10 - p4 + p5 <= 167
 R299: - 12 x4,5_12 - p4 + p5 >= 0
 R300: 157 x4,5_12 - p4 + p5 <= 169
 R301: - 20 x4,5_20 - p4 + p5 >= 0
 R302: 157 x4,5_20 - p4 + p5 <= 177
 R303: - 22 x4,5_22 - p4 + p5 >= 0
 R304: 157 x4,5_22 - p4 + p5 <= 179
 R305: - 30 x4,5_30 - p4 + p5 >= 0
 R306: 157 x4,5_30 - p4 + p5 <= 187
 R307: - 39 x4,5_39 - p4 + p5 >= 0
 R308: 157 x4,5_39 - p4 + p5 <= 196
Bounds
Binaries
 x0,1_7 x0,1_8 x0,1_9 x0,1_10 x0,1_12 x0,1_20 x0,1_22 x0,1_30 x0,1_39
 x0,2_7 x0,2_8 x0,2_9 x0,2_10 x0,2_12 x0,2_20 x0,2_22 x0,2_30 x0,2_39
 x0,3_7 x0,3_8 x0,3_9 x0,3_10 x0,3_12 x0,3_20 x0,3_22 x0,3_30 x0,3_39
 x0,4_7 x0,4_8 x0,4_9 x0,4_10 x0,4_12 x0,4_20 x0,4_22 x0,4_30 x0,4_39
 x0,5_7 x0,5_8 x0,5_9 x0,5_10 x0,5_12 x0,5_20 x0,5_22 x0,5_30 x0,5_39
 x1,2_7 x1,2_8 x1,2_9 x1,2_10 x1,2_12 x1,2_20 x1,2_22 x1,2_30 x1,2_39
 x1,3_7 x1,3_8 x1,3_9 x1,3_10 x1,3_12 x1,3_20 x1,3_22 x1,3_30 x1,3_39
 x1,4_7 x1,4_8 x1,4_9 x1,4_10 x1,4_12 x1,4_20 x1,4_22 x1,4_30 x1,4_39
 x1,5_7 x1,5_8 x1,5_9 x1,5_10 x1,5_12 x1,5_20 x1,5_22 x1,5_30 x1,5_39
 x2,3_7 x2,3_8 x2,3_9 x2,3_10 x2,3_12 x2,3_20 x2,3_22 x2,3_30 x2,3_39
 x2,4_7 x2,4_8 x2,4_9 x2,4_10 x2,4_12 x2,4_20 x2,4_22 x2,4_30 x2,4_39
 x2,5_7 x2,5_8 x2,5_9 x2,5_10 x2,5_12 x2,5_20 x2,5_22 x2,5_30 x2,5_39
 x3,4_7 x3,4_8 x3,4_9 x3,4_10 x3,4_12 x3,4_20 x3,4_22 x3,4_30 x3,4_39
 x3,5_7 x3,5_8 x3,5_9 x3,5_10 x3,5_12 x3,5_20 x3,5_22 x3,5_30 x3,5_39
 x4,5_7 x4,5_8 x4,5_9 x4,5_10 x4,5_12 x4,5_20 x4,5_22 x4,5_30 x4,5_39
Generals
 p0 p1 p2 p3 p4 p5
End
